p tw 40 84
0 1
0 14
0 15
0 26
1 33
1 6
1 9
2 3
2 10
2 21
2 25
3 16
3 19
4 5
4 21
4 30
4 38
5 7
5 19
6 7
6 23
6 33
6 31
6 37
7 11
7 16
8 9
8 23
8 25
8 13
9 19
10 23
10 38
10 21
11 12
11 36
11 14
11 13
12 13
12 28
12 29
12 36
13 14
13 25
13 37
13 22
13 35
14 27
14 31
14 24
14 18
15 35
15 16
16 17
16 26
17 35
18 19
18 22
19 20
19 33
19 29
20 26
20 35
20 37
21 29
21 37
21 32
22 23
22 32
23 27
23 32
24 25
24 32
24 38
24 31
27 28
27 35
27 31
28 39
29 32
30 31
32 36
33 34
34 37
